250 10000
1 1782
2 635
3 1542
4 1534
5 675 6 14 22 35 36 39 43 44 48 49 50 52 53 54 57 58 62 67 73 74 83 87 92 94 98 108 112 128 129 130 139 143 144 146 151 154 158 159 166 173 175 180 184 188 193 197 206 207 216 219 222 232 236 237 240 244 249
6 1708 11 14 16 19 22 23 30 31 35 36 39 40 43 44 48 49 50 52 53 54 57 58 60 62 63 64 65 67 68 73 74 75 76 79 83 84 87 90 92 94 98 102 108 112 126 128 129 130 139 140 143 144 146 151 154 158 159 162 166 173 174 175 180 184 185 188 190 191 193 195 197 204 206 207 208 211 215 216 218 219 220 222 232 233 234 236 237 239 240 244 249 250
7 1809
8 2126
9 1051
10 2356
11 1481 14 22 35 36 39 43 44 48 52 53 54 57 58 62 67 74 83 87 98 112 128 129 130 139 146 151 159 166 173 175 180 184 188 193 207 216 219 222 232 236 237 249
12 2167
13 1241
14 1165 16 19 22 23 30 31 35 36 38 39 40 43 44 48 49 50 52 53 54 57 58 60 62 63 64 65 67 68 73 74 75 76 79 83 84 87 90 92 94 98 102 108 112 126 128 129 130 135 139 140 143 144 146 151 154 158 159 162 166 173 174 175 180 184 185 188 190 191 193 195 197 204 206 207 208 211 212 215 216 218 219 220 222 232 233 234 236 237 239 240 242 244 249 250
15 2056
16 2134 22 35 36 39 43 44 48 52 53 57 58 62 67 74 83 87 98 112 128 129 130 139 146 151 159 166 175 180 184 188 193 207 216 219 222 232 236 237 249
17 1958
18 2149
19 518 22 35 36 39 43 44 48 52 53 54 57 58 62 67 74 83 87 98 112 128 129 130 139 144 146 151 154 158 159 166 173 175 180 184 188 193 197 206 207 216 219 222 232 236 237 249
20 1167
21 1178
22 2213 23 31 35 36 39 43 44 48 49 50 52 53 54 57 58 60 62 63 67 68 73 74 75 79 83 84 87 92 94 98 102 108 112 126 128 129 130 139 140 143 144 146 151 154 158 159 162 166 173 174 175 180 184 188 190 193 197 206 207 215 216 219 220 222 232 234 236 237 240 244 249 250
23 583 35 36 39 43 44 48 52 53 54 57 58 62 67 74 83 87 98 112 128 129 130 139 146 151 159 166 175 180 184 188 193 207 216 219 222 232 236 237 249
24 2013
25 1675
26 1124
27 1248
28 730
29 1728
30 1682 48 52 53 58 62 67 74 87 112 139 159 175 180 184 188 193 219 222 232 249
31 1904 35 36 39 43 44 48 52 53 54 57 58 62 67 74 83 87 98 112 128 129 130 139 143 144 146 151 154 158 159 166 173 175 180 184 188 193 197 206 207 216 219 222 232 236 237 249
32 2198
33 1913
34 1318
35 2457 36 39 43 44 48 49 50 52 53 54 57 58 62 63 67 73 74 75 79 83 84 87 92 94 98 102 108 112 128 129 130 139 140 143 144 146 151 154 158 159 166 173 174 175 180 184 188 190 193 197 206 207 216 219 220 222 232 236 237 240 244 249
36 1032 39 43 44 48 49 50 52 53 54 57 58 60 62 63 67 68 73 74 75 76 79 83 84 87 90 92 94 98 102 108 112 126 128 129 130 139 140 143 144 146 151 154 158 159 162 166 173 174 175 180 184 188 190 193 197 204 206 207 215 216 219 220 222 232 234 236 237 240 244 249 250
37 1554 58 67 175 188 222
38 1796 48 58 67 87 139 175 188 193 222 249
39 2047 43 44 48 49 50 52 53 54 57 58 60 62 63 67 68 73 74 75 79 83 84 87 92 94 98 102 108 112 126 128 129 130 139 140 143 144 146 151 154 158 159 162 166 173 174 175 180 184 188 190 193 197 206 207 215 216 219 220 222 232 234 236 237 240 244 249 250
40 1658 48 58 67 87 139 175 188 193 222 249
41 2059
42 1370
43 932 44 48 49 50 52 53 54 57 58 60 62 63 64 67 68 73 74 75 76 79 83 84 87 90 92 94 98 102 108 112 126 128 129 130 139 140 143 144 146 151 154 158 159 162 166 173 174 175 180 184 188 190 191 193 197 204 206 207 215 216 219 220 222 232 234 236 237 240 244 249 250
44 1389 48 49 50 52 53 54 57 58 60 62 63 67 68 73 74 75 76 79 83 84 87 90 92 94 98 102 108 112 126 128 129 130 139 140 143 144 146 151 154 158 159 162 166 173 174 175 180 184 188 190 193 197 204 206 207 215 216 219 220 222 232 234 236 237 240 244 249 250
45 1848
46 507
47 1394
48 799 49 50 52 53 54 57 58 60 62 63 64 65 67 68 73 74 75 76 79 83 84 87 90 92 94 98 102 108 112 126 128 129 130 135 139 140 143 144 146 151 154 158 159 162 166 173 174 175 180 184 185 188 190 191 193 195 197 204 206 207 208 211 215 216 218 219 220 222 232 233 234 236 237 239 240 242 244 249 250
49 2325 50 52 53 54 57 58 62 67 73 74 83 87 92 94 98 108 112 128 129 130 139 143 144 146 151 154 158 159 166 173 175 180 184 188 193 197 206 207 216 219 222 232 236 237 240 244 249
50 572 52 53 54 57 58 62 67 73 74 83 87 92 94 98 108 112 128 129 130 139 143 144 146 151 154 158 159 166 173 175 180 184 188 193 197 206 207 216 219 222 232 236 237 240 244 249
51 1605
52 1980 53 54 57 58 60 62 63 64 65 67 68 73 74 75 76 79 83 84 87 90 92 94 98 102 108 112 126 128 129 130 139 140 143 144 146 151 154 158 159 162 166 173 174 175 180 184 185 188 190 191 193 197 204 206 207 208 211 215 216 218 219 220 222 232 233 234 236 237 240 244 249 250
53 1415 54 57 58 60 62 63 64 67 68 73 74 75 76 79 83 84 87 90 92 94 98 102 108 112 126 128 129 130 139 140 143 144 146 151 154 158 159 162 166 173 174 175 180 184 188 190 191 193 197 204 206 207 211 215 216 219 220 222 232 233 234 236 237 240 244 249 250
54 2105 57 58 62 63 67 73 74 75 79 83 84 87 92 94 98 102 108 112 128 129 130 139 140 143 144 146 151 154 158 159 166 173 174 175 180 184 188 190 193 197 206 207 216 219 220 222 232 236 237 240 244 249
55 2224
56 2428
57 1748 58 60 62 63 67 68 73 74 75 76 79 83 84 87 90 92 94 98 102 108 112 126 128 129 130 139 140 143 144 146 151 154 158 159 162 166 173 174 175 180 184 188 190 193 197 204 206 207 215 216 219 220 222 232 234 236 237 240 244 249 250
58 1623 60 62 63 64 65 67 68 73 74 75 76 79 81 83 84 87 90 92 94 98 102 108 112 117 126 128 129 130 135 139 140 143 144 146 151 154 158 159 162 166 173 174 175 180 184 185 188 190 191 193 195 197 204 206 207 208 211 212 215 216 218 219 220 222 232 233 234 236 237 239 240 242 244 249 250
59 723
60 1099 62 67 74 83 87 112 128 129 130 139 146 151 159 166 175 180 184 188 193 207 216 219 222 232 236 237 249
61 653
62 1819 63 64 65 67 68 73 74 75 76 79 83 84 87 90 92 94 98 102 108 112 126 128 129 130 139 140 143 144 146 151 154 158 159 162 166 173 174 175 180 184 185 188 190 191 193 197 204 206 207 211 215 216 218 219 220 222 232 233 234 236 237 240 244 249 250
63 1938 67 74 83 87 98 112 128 129 130 139 146 151 159 166 173 175 180 184 188 193 197 206 207 216 219 222 232 236 237 249
64 2341 67 74 87 112 139 159 175 180 184 188 193 219 222 232 249
65 1075 67 74 87 112 139 159 175 184 188 193 222 249
66 698
67 2367 68 73 74 75 76 79 81 83 84 87 90 92 94 98 102 108 112 126 128 129 130 135 139 140 143 144 146 151 154 158 159 162 166 173 174 175 180 184 185 188 190 191 193 195 197 204 206 207 208 211 212 215 216 218 219 220 222 232 233 234 236 237 239 240 242 244 249 250
68 891 74 83 87 112 128 129 130 139 151 159 166 175 180 184 188 193 207 216 219 222 232 237 249
69 542
70 2319
71 947
72 726
73 1548 74 83 87 92 94 98 102 108 112 128 129 130 139 143 144 146 151 154 158 159 166 173 175 180 184 188 193 197 206 207 216 219 222 232 236 237 240 244 249
74 2068 75 76 79 83 84 87 90 92 94 98 102 108 112 126 128 129 130 139 140 143 144 146 151 154 158 159 162 166 173 174 175 180 184 185 188 190 191 193 195 197 204 206 207 208 211 215 216 218 219 220 222 232 233 234 236 237 240 244 249 250
75 2283 83 87 98 112 128 129 130 139 146 151 159 166 173 175 180 184 188 193 197 206 207 216 219 222 232 236 237 249
76 2111 87 112 129 130 139 151 159 175 180 184 188 193 207 219 222 232 237 249
77 742
78 1335
79 2162 83 87 98 108 112 128 129 130 139 143 144 146 151 154 158 159 166 173 175 180 184 188 193 197 206 207 216 219 222 232 236 237 249
80 2340
81 884 175 188 193 222
82 845
83 844 84 87 92 94 98 102 108 112 126 128 129 130 139 140 143 144 146 151 154 158 159 162 166 173 174 175 180 184 188 190 193 197 206 207 215 216 219 220 222 232 234 236 237 240 244 249 250
84 851 87 98 112 128 129 130 139 146 151 159 166 175 180 184 188 193 207 216 219 222 232 236 237 249
85 680
86 1317
87 2360 90 92 94 98 102 108 112 126 128 129 130 135 139 140 143 144 146 151 154 158 159 162 166 173 174 175 180 184 185 188 190 191 193 195 197 204 206 207 208 211 212 215 216 218 219 220 222 232 233 234 236 237 239 240 242 244 249 250
88 1000
89 770
90 1548 112 129 130 139 151 159 166 175 180 184 188 193 207 219 222 232 237 249
91 2184
92 2091 94 98 108 112 128 129 130 139 143 144 146 151 154 158 159 166 173 175 180 184 188 193 197 206 207 216 219 222 232 236 237 240 244 249
93 2036
94 1836 98 108 112 128 129 130 139 143 144 146 151 154 158 159 166 173 175 180 184 188 193 197 206 207 216 219 222 232 236 237 240 244 249
95 1390
96 2089
97 619
98 907 102 108 112 128 129 130 139 140 143 144 146 151 154 158 159 166 173 174 175 180 184 188 190 193 197 206 207 216 219 220 222 232 236 237 240 244 249
99 1506
100 2080
101 1995
102 1712 108 112 128 129 130 139 143 144 146 151 154 158 159 166 173 175 180 184 188 193 197 206 207 216 219 222 232 236 237 240 249
103 1714
104 2421
105 2032
106 1199
107 1472
108 1993 112 128 129 130 139 143 144 146 151 154 158 159 166 173 175 180 184 188 193 197 206 207 216 219 222 232 236 237 240 244 249
109 1712
110 2411
111 2485
112 1620 126 128 129 130 139 140 143 144 146 151 154 158 159 162 166 173 174 175 180 184 185 188 190 191 193 195 197 204 206 207 208 211 215 216 218 219 220 222 232 233 234 236 237 239 240 244 249 250
113 1284
114 500
115 2124
116 1907
117 1004 175 188 222
118 1121
119 2455
120 2131
121 2063
122 2077
123 1155
124 907
125 1660
126 1715 128 129 130 139 146 151 159 166 175 180 184 188 193 207 216 219 222 232 236 237 249
127 2338
128 506 129 130 139 140 143 144 146 151 154 158 159 162 166 173 174 175 180 184 188 190 193 197 206 207 215 216 219 220 222 232 234 236 237 240 244 249 250
129 1851 130 139 140 143 144 146 151 154 158 159 162 166 173 174 175 180 184 188 190 193 197 204 206 207 215 216 219 220 222 232 234 236 237 240 244 249 250
130 1306 139 140 143 144 146 151 154 158 159 162 166 173 174 175 180 184 188 190 193 197 204 206 207 215 216 219 220 222 232 234 236 237 240 244 249 250
131 1686 175 188 222
132 1165
133 2462
134 959
135 2322 139 175 188 193 222 249
136 776
137 2075
138 2245
139 2299 140 143 144 146 151 154 158 159 162 166 173 174 175 180 184 185 188 190 191 193 195 197 204 206 207 208 211 212 215 216 218 219 220 222 232 233 234 236 237 239 240 242 244 249 250
140 2406 146 151 159 166 173 175 180 184 188 193 206 207 216 219 222 232 236 237 249
141 1072
142 1580
143 1939 144 146 151 154 158 159 166 173 175 180 184 188 193 197 206 207 216 219 222 232 236 237 240 244 249
144 2462 146 151 154 158 159 166 173 175 180 184 188 193 197 206 207 216 219 222 232 236 237 240 244 249
145 2048
146 2266 151 154 158 159 162 166 173 174 175 180 184 188 190 193 197 206 207 215 216 219 220 222 232 234 236 237 240 244 249 250
147 1564
148 988
149 1624
150 2216
151 747 154 158 159 162 166 173 174 175 180 184 188 190 193 197 204 206 207 215 216 219 220 222 232 234 236 237 240 244 249 250
152 2144
153 758
154 2298 158 159 166 173 175 180 184 188 193 197 206 207 216 219 222 232 236 237 240 244 249
155 2000
156 2352
157 501
158 1201 159 166 173 175 180 184 188 193 197 206 207 216 219 222 232 236 237 240 244 249
159 2430 162 166 173 174 175 180 184 185 188 190 191 193 195 197 204 206 207 208 211 215 216 218 219 220 222 232 233 234 236 237 239 240 244 249 250
160 1429
161 2008
162 1632 166 175 180 184 188 193 207 216 219 222 232 236 237 249
163 1648
164 1638
165 2341
166 1082 173 174 175 180 184 188 190 193 197 206 207 215 216 219 220 222 232 234 236 237 240 244 249 250
167 2070
168 1635
169 1857
170 1268
171 1009
172 2213
173 801 174 175 180 184 188 193 197 206 207 216 219 220 222 232 236 237 240 244 249
174 2341 175 180 184 188 193 207 216 219 222 232 236 237 249
175 2328 180 184 185 188 190 191 193 195 197 204 206 207 208 211 212 215 216 218 219 220 222 232 233 234 236 237 239 240 242 244 249 250
176 571
177 1026
178 519
179 1516
180 591 184 185 188 190 191 193 197 204 206 207 211 215 216 218 219 220 222 232 233 234 236 237 240 244 249 250
181 2149
182 882
183 2456
184 1341 185 188 190 191 193 197 204 206 207 208 211 215 216 218 219 220 222 232 233 234 236 237 240 244 249 250
185 816 188 193 219 222 249
186 551
187 1597
188 626 190 191 193 195 197 204 206 207 208 211 212 215 216 218 219 220 222 232 233 234 236 237 239 240 242 244 249 250
189 1048
190 1277 193 207 216 219 222 232 236 237 249
191 1906 193 219 222 232 249
192 2320
193 957 195 197 204 206 207 208 211 212 215 216 218 219 220 222 232 233 234 236 237 239 240 242 244 249 250
194 2270
195 652 222 249
196 1780
197 1671 206 207 216 219 222 232 236 237 240 244 249
198 2382
199 970
200 2273
201 502
202 929
203 547
204 887 207 219 222 232 237 249
205 1505
206 994 207 216 219 220 222 232 236 237 240 244 249
207 2211 215 216 219 220 222 232 234 236 237 240 244 249 250
208 740 222 249
209 1957
210 2040
211 930 219 222 232 249
212 1217 222
213 573
214 2042
215 1653 216 219 222 232 236 237 249
216 1984 219 220 222 232 234 236 237 240 244 249 250
217 1154
218 2207 219 222 249
219 2443 220 222 232 233 234 236 237 240 244 249 250
220 1712 222 232 236 237 249
221 1979
222 1686 232 233 234 236 237 239 240 242 244 249 250
223 1483
224 1521
225 671
226 970
227 2420
228 938
229 1698
230 1268
231 1460
232 947 233 234 236 237 240 244 249 250
233 863 249
234 2383 236 237 249
235 1364
236 1240 237 240 244 249 250
237 2093 240 244 249 250
238 857
239 1347 249
240 2267 244 249
241 2431
242 1251 249
243 1001
244 1356 249
245 919
246 2108
247 797
248 2177
249 1170 250
250 1888
